K  Bi Au
 1.0000000000000000
    10.6904290000000000    0.0000000000000000    0.0000000000000000
     0.0000000000000000    7.9296513399999977    0.0000000000000000
    -0.7011468305378513    0.0000000000000000    6.6709664816601686
 K   Bi  Au 
   8   4   4
Cartesian
  8.6976432687554830  5.3748419755367527  1.6677416204150421
  8.3470698534865573  2.5548093644632450  5.0032248612451262
  1.2916389007066662  2.5548093644632450  5.0032248612451262
  1.6422123159755917  5.3748419755367527  1.6677416204150421
  3.3524287687554826  1.4100163055367536  1.6677416204150421
  3.0018553534865569  6.5196350344632439  5.0032248612451262
  6.6368534007066664  6.5196350344632439  5.0032248612451262
  6.9874268159755921  1.4100163055367536  1.6677416204150421
 -0.1752867076344628  2.1800008738226104  1.6677416204150421
 -0.5258601229033885  5.7496504661773873  5.0032248612451262
  5.1699277923655371  6.1448265438226093  1.6677416204150421
  4.8193543770966114  1.7848247961773880  5.0032248612451262
 -0.3505734152689256  0.0000000000000000  3.3354832408300843
  0.0000000000000000  0.0000000000000000  0.0000000000000000
  4.9946410847310743  3.9648256699999989  3.3354832408300843
  5.3452145000000000  3.9648256699999989  0.0000000000000000
