Ag Cl
 1.0000000000000000
     5.5453259936122867    0.0000000000000000    0.0000000000000000
     0.0000000000000000    5.5453259936122867    0.0000000000000000
     0.0000000000000000    0.0000000000000000    5.8780455532290246
 Ag  Cl 
   4   4
Cartesian
  0.0000000000000000  0.0000000000000000  0.0000000000000000
  0.0000000000000000  2.7726629968061434  2.9390227766145127
  2.7726629968061434  0.0000000000000000  2.9390227766145127
  2.7726629968061434  2.7726629968061434  0.0000000000000000
  2.7726629968061434  0.0000000000000000  0.0000000000000000
  2.7726629968061434  2.7726629968061434  2.9390227766145127
  0.0000000000000000  0.0000000000000000  2.9390227766145127
  0.0000000000000000  2.7726629968061434  0.0000000000000000
