K  Bi Au
 1.0000000000000000
    10.6904290000000000    0.0000000000000000    0.0000000000000000
     0.0000000000000000    7.9296513399999977    0.0000000000000000
    -2.2941726298879122    0.0000000000000000    6.3031874969478654
 K   Bi  Au 
   8   4   4
Cartesian
  8.2993868189179683  5.3748419755367527  1.5757968742369663
  7.1523005039740122  2.5548093644632450  4.7273906227108986
  0.0968695511941205  2.5548093644632450  4.7273906227108986
  1.2439558661380765  5.3748419755367527  1.5757968742369663
  2.9541723189179674  1.4100163055367536  1.5757968742369663
  1.8070860039740113  6.5196350344632439  4.7273906227108986
  5.4420840511941213  6.5196350344632439  4.7273906227108986
  6.5891703661380774  1.4100163055367536  1.5757968742369663
 -0.5735431574719780  2.1800008738226104  1.5757968742369663
 -1.7206294724159341  5.7496504661773873  4.7273906227108986
  4.7716713425280224  6.1448265438226093  1.5757968742369663
  3.6245850275840659  1.7848247961773880  4.7273906227108986
 -1.1470863149439561  0.0000000000000000  3.1515937484739327
  0.0000000000000000  0.0000000000000000  0.0000000000000000
  4.1981281850560439  3.9648256699999989  3.1515937484739327
  5.3452145000000000  3.9648256699999989  0.0000000000000000
