K  Bi Au
 1.0000000000000000
    10.6904290000000000    0.0000000000000000    0.0000000000000000
     0.0000000000000000    7.9296513399999977    0.0000000000000000
    -1.1647819703240456    0.0000000000000000    6.6058068121172564
 K   Bi  Au 
   8   4   4
Cartesian
  8.5817344838089351  5.3748419755367527  1.6514517030293141
  7.9993434986469119  2.5548093644632450  4.9543551090879419
  0.9439125458670204  2.5548093644632450  4.9543551090879419
  1.5263035310290431  5.3748419755367527  1.6514517030293141
  3.2365199838089342  1.4100163055367536  1.6514517030293141
  2.6541289986469114  6.5196350344632439  4.9543551090879419
  6.2891270458670210  6.5196350344632439  4.9543551090879419
  6.8715180310290433  1.4100163055367536  1.6514517030293141
 -0.2911954925810114  2.1800008738226104  1.6514517030293141
 -0.8735864777430341  5.7496504661773873  4.9543551090879419
  5.0540190074189884  6.1448265438226093  1.6514517030293141
  4.4716280222569660  1.7848247961773880  4.9543551090879419
 -0.5823909851620227  0.0000000000000000  3.3029034060586282
  0.0000000000000000  0.0000000000000000  0.0000000000000000
  4.7628235148379776  3.9648256699999989  3.3029034060586282
  5.3452145000000000  3.9648256699999989  0.0000000000000000
