Ag As S 
 1.0000000000000000
     7.8419814500000005    0.0000000000000000    0.0000000000000000
     0.0000000000000000    6.9463108000000000    0.0000000000000000
    -1.3791526172851187    0.0000000000000000    6.4884029288455922
 Ag  As  S  
   6   2   8
Cartesian
  2.5580179124750853  1.0285626767398841  6.4122829322052537
  1.8559961132924829  4.7562756386934364  0.0988408913644814
  1.3333997430232896  2.1900351613065641  3.3430423557872775
 -0.6733965038823554  5.9177481232601155  3.1680814677824576
  5.0874105296499241  2.1900351613065641  3.3430423557872775
  5.9439667766658486  4.7562756386934364  0.0988408913644814
  3.2352738232501257  5.6833805693516277  3.2260443825507430
 -1.3752932103924340  1.2629302306483721  6.4702458469735387
  5.1784282867701039  4.6144251647728520  2.5362853010155657
  4.8167594135911678  2.3318856352271484  5.7804867654383614
  0.5678612531275445  2.3318856352271484  5.7804867654383614
  1.5853449972337261  4.6144251647728520  2.5362853010155657
 -0.4505313574938083  1.2828959423177040  2.1195833897295744
 -1.2046915213477967  6.1761080957455876  5.6676280039662563
  2.7808830588636324  5.6634148576822962  5.3637848541523701
  3.4058755122947630  0.7702027042544122  2.4234265395434598
