Ag As S 
 1.0000000000000000
     7.8419814500000005    0.0000000000000000    0.0000000000000000
     0.0000000000000000    6.9463108000000000    0.0000000000000000
    -1.1518704781543820    0.0000000000000000    6.5325821013113057
 Ag  As  S  
   6   2   8
Cartesian
  2.7826336457341823  1.0285626767398841  6.4559438078733509
  1.8594584089404669  4.7562756386934364  0.0995138934628627
  1.4505031082366417  2.1900351613065641  3.3658049441185152
 -0.5624218401886271  5.9177481232601155  3.1896527572176980
  5.2045138948632763  2.1900351613065641  3.3658049441185152
  5.9474290723138328  4.7562756386934364  0.0995138934628627
  3.3482788687501719  5.6833805693516277  3.2480103382291636
 -1.1486470953270194  1.2629302306483721  6.5143013888848165
  5.2672717749107552  4.6144251647728520  2.5535547257052182
  5.0192439712971870  2.3318856352271484  5.8198457763608706
  0.7703458108335645  2.3318856352271484  5.8198457763608706
  1.6741884853743776  4.6144251647728520  2.5535547257052182
 -0.3762845124432302  1.2828959423177040  2.1340155144230057
 -1.0061602909872456  6.1761080957455876  5.7062185658972311
  2.9687709734795789  5.6634148576822962  5.4003065650786581
  3.4907656730899457  0.7702027042544122  2.4399275152415778
