K  Bi Au
 1.0000000000000000
    10.6904290000000000    0.0000000000000000    0.0000000000000000
     0.0000000000000000    7.9296513399999977    0.0000000000000000
    -2.0727970106432765    0.0000000000000000    6.3794132355628923
 K   Bi  Au 
   8   4   4
Cartesian
  8.3547307237291264  5.3748419755367527  1.5948533088907231
  7.3183322184074884  2.5548093644632450  4.7845599266721690
  0.2629012656275972  2.5548093644632450  4.7845599266721690
  1.2992997709492353  5.3748419755367527  1.5948533088907231
  3.0095162237291264  1.4100163055367536  1.5948533088907231
  1.9731177184074880  6.5196350344632439  4.7845599266721690
  5.6081157656275975  6.5196350344632439  4.7845599266721690
  6.6445142709492355  1.4100163055367536  1.5948533088907231
 -0.5181992526608191  2.1800008738226104  1.5948533088907231
 -1.5545977579824575  5.7496504661773873  4.7845599266721690
  4.8270152473391805  6.1448265438226093  1.5948533088907231
  3.7906167420175425  1.7848247961773880  4.7845599266721690
 -1.0363985053216382  0.0000000000000000  3.1897066177814462
  0.0000000000000000  0.0000000000000000  0.0000000000000000
  4.3088159946783620  3.9648256699999989  3.1897066177814462
  5.3452145000000000  3.9648256699999989  0.0000000000000000
