K  Bi Au
 1.0000000000000000
    10.6904290000000000    0.0000000000000000    0.0000000000000000
     0.0000000000000000    7.9296513399999977    0.0000000000000000
    -1.8488960075310750    0.0000000000000000    6.4478666418236639
 K   Bi  Au 
   8   4   4
Cartesian
  8.4107059745071773  5.3748419755367527  1.6119666604559160
  7.4862579707416392  2.5548093644632450  4.8358999813677475
  0.4308270179617483  2.5548093644632450  4.8358999813677475
  1.3552750217272858  5.3748419755367527  1.6119666604559160
  3.0654914745071769  1.4100163055367536  1.6119666604559160
  2.1410434707416393  6.5196350344632439  4.8358999813677475
  5.7760415179617484  6.5196350344632439  4.8358999813677475
  6.7004895217272864  1.4100163055367536  1.6119666604559160
 -0.4622240018827687  2.1800008738226104  1.6119666604559160
 -1.3866720056483062  5.7496504661773873  4.8358999813677475
  4.8829904981172314  6.1448265438226093  1.6119666604559160
  3.9585424943516938  1.7848247961773880  4.8358999813677475
 -0.9244480037655375  0.0000000000000000  3.2239333209118319
  0.0000000000000000  0.0000000000000000  0.0000000000000000
  4.4207664962344628  3.9648256699999989  3.2239333209118319
  5.3452145000000000  3.9648256699999989  0.0000000000000000
