K  Bi Au
 1.0000000000000000
    10.6904290000000000    0.0000000000000000    0.0000000000000000
     0.0000000000000000    7.9296513399999977    0.0000000000000000
    -1.3946117496759234    0.0000000000000000    6.5611324285577846
 K   Bi  Au 
   8   4   4
Cartesian
  8.5242770389709648  5.3748419755367527  1.6402831071394461
  7.8269711641330035  2.5548093644632450  4.9208493214183378
  0.7715402113531120  2.5548093644632450  4.9208493214183378
  1.4688460861910737  5.3748419755367527  1.6402831071394461
  3.1790625389709648  1.4100163055367536  1.6402831071394461
  2.4817566641330031  6.5196350344632439  4.9208493214183378
  6.1167547113531127  6.5196350344632439  4.9208493214183378
  6.8140605861910739  1.4100163055367536  1.6402831071394461
 -0.3486529374189808  2.1800008738226104  1.6402831071394461
 -1.0459588122569425  5.7496504661773873  4.9208493214183378
  4.9965615625810189  6.1448265438226093  1.6402831071394461
  4.2992556877430577  1.7848247961773880  4.9208493214183378
 -0.6973058748379617  0.0000000000000000  3.2805662142788923
  0.0000000000000000  0.0000000000000000  0.0000000000000000
  4.6479086251620387  3.9648256699999989  3.2805662142788923
  5.3452145000000000  3.9648256699999989  0.0000000000000000
