Ag As S 
 1.0000000000000000
     7.8419814500000005    0.0000000000000000    0.0000000000000000
     0.0000000000000000    6.9463108000000000    0.0000000000000000
    -2.4848995346522758    0.0000000000000000    6.1503421702781180
 Ag  As  S  
   6   2   8
Cartesian
  1.4652432862184048  1.0285626767398841  6.0781882010390653
  1.8391517507991779  4.7562756386934364  0.0936910529406666
  0.7636819218464059  2.1900351613065641  3.1688621380797253
 -1.2132976714554575  5.9177481232601155  3.0030171159000063
  4.5176927084730405  2.1900351613065641  3.1688621380797253
  5.9271224141725432  4.7562756386934364  0.0936910529406666
  2.6854946756826381  5.6833805693516277  3.0579600291131737
 -2.4779458166435000  1.2629302306483721  6.1331311142522322
  4.7461971685863622  4.6144251647728520  2.4041389867056115
  3.8316548367238474  2.3318856352271484  5.4793100718446697
 -0.4172433237397754  2.3318856352271484  5.4793100718446697
  1.1531138790499846  4.6144251647728520  2.4041389867056115
 -0.8117485668746534  1.2828959423177040  2.0091482061509729
 -2.1705628247941857  6.1761080957455876  5.3723315121622273
  1.8667923907992090  5.6634148576822962  5.0843192912900319
  2.9928776675319524  0.7702027042544122  2.2971604270231678
