Ag As S 
 1.0000000000000000
     7.8419814500000005    0.0000000000000000    0.0000000000000000
     0.0000000000000000    6.9463108000000000    0.0000000000000000
    -2.0498202621580837    0.0000000000000000    6.3086980750121979
 Ag  As  S  
   6   2   8
Cartesian
  1.8952183392114768  1.0285626767398841  6.2346863218055759
  1.8457795178443399  4.7562756386934364  0.0961033628647560
  0.9878493251386641  2.1900351613065641  3.2504524003708548
 -1.0008622547094816  5.9177481232601155  3.0803372842994774
  4.7418601117652983  2.1900351613065641  3.2504524003708548
  5.9337501812177056  4.7562756386934364  0.0961033628647560
  2.9018167904443790  5.6833805693516277  3.1366948398999646
 -2.0440840656346628  1.2629302306483721  6.2910438774060635
  4.9162675504206632  4.6144251647728520  2.4660395434235847
  4.2192648548052443  2.3318856352271484  5.6203885809296832
 -0.0296333056583786  2.3318856352271484  5.6203885809296832
  1.3231842608842854  4.6144251647728520  2.4660395434235847
 -0.6696200940736599  1.2828959423177040  2.0608787396922481
 -1.7905205407722111  6.1761080957455876  5.5106555913087680
  2.2264604998472985  5.6634148576822962  5.2152277771983471
  3.1553803153068309  0.7702027042544122  2.3563065538026686
