Ag As S 
 1.0000000000000000
     7.8419814500000005    0.0000000000000000    0.0000000000000000
     0.0000000000000000    6.9463108000000000    0.0000000000000000
    -1.6047544713938715    0.0000000000000000    6.4363186368729313
 Ag  As  S  
   6   2   8
Cartesian
  2.3350627516381803  1.0285626767398841  6.3608096775207281
  1.8525594142159729  4.7562756386934364  0.0980474668652447
  1.2171621168924032  2.1900351613065641  3.3162067853017101
 -0.7835507376648840  5.9177481232601155  3.1426503590842625
  4.9711729035190375  2.1900351613065641  3.3162067853017101
  5.9405300775893384  4.7562756386934364  0.0980474668652447
  3.1231042181682684  5.6833805693516277  3.2001479887262261
 -1.6002637425286674  1.2629302306483721  6.4183073071626913
  5.0902416139119664  4.6144251647728520  2.5159258033714260
  4.6157718136786539  2.3318856352271484  5.7340851218078912
  0.3668736532150307  2.3318856352271484  5.7340851218078912
  1.4971583243755886  4.6144251647728520  2.5159258033714260
 -0.5242292994843167  1.2828959423177040  2.1025688791725492
 -1.4017550206580913  6.1761080957455876  5.6221323103436154
  2.5943841898187476  5.6634148576822962  5.3207281976090144
  3.3216129400388450  0.7702027042544122  2.4039729919071493
