K  Bi Au
 1.0000000000000000
    10.6904290000000000    0.0000000000000000    0.0000000000000000
     0.0000000000000000    7.9296513399999977    0.0000000000000000
     0.0000000000000000    0.0000000000000000    6.7077120299999997
 K   Bi  Au 
   8   4   4
Cartesian
  8.8729299763899458  5.3748419755367527  1.6769280074999999
  8.8729299763899458  2.5548093644632450  5.0307840224999998
  1.8174990236100546  2.5548093644632450  5.0307840224999998
  1.8174990236100546  5.3748419755367527  1.6769280074999999
  3.5277154763899454  1.4100163055367536  1.6769280074999999
  3.5277154763899454  6.5196350344632439  5.0307840224999998
  7.1627135236100550  6.5196350344632439  5.0307840224999998
  7.1627135236100550  1.4100163055367536  1.6769280074999999
  0.0000000000000000  2.1800008738226104  1.6769280074999999
  0.0000000000000000  5.7496504661773873  5.0307840224999998
  5.3452145000000000  6.1448265438226093  1.6769280074999999
  5.3452145000000000  1.7848247961773880  5.0307840224999998
  0.0000000000000000  0.0000000000000000  3.3538560149999999
  0.0000000000000000  0.0000000000000000  0.0000000000000000
  5.3452145000000000  3.9648256699999989  3.3538560149999999
  5.3452145000000000  3.9648256699999989  0.0000000000000000
