Ag Cl
 1.0000000000000000
     5.5453259936122867    0.0000000000000000    0.0000000000000000
     0.0000000000000000    5.5453259936122867    0.0000000000000000
     0.0000000000000000    0.0000000000000000    5.6007792535484100
 Ag  Cl 
   4   4
Cartesian
  0.0000000000000000  0.0000000000000000  0.0000000000000000
  0.0000000000000000  2.7726629968061434  2.8003896267742054
  2.7726629968061434  0.0000000000000000  2.8003896267742054
  2.7726629968061434  2.7726629968061434  0.0000000000000000
  2.7726629968061434  0.0000000000000000  0.0000000000000000
  2.7726629968061434  2.7726629968061434  2.8003896267742054
  0.0000000000000000  0.0000000000000000  2.8003896267742054
  0.0000000000000000  2.7726629968061434  0.0000000000000000
