Ag As S 
 1.0000000000000000
     7.8419814500000005    0.0000000000000000    0.0000000000000000
     0.0000000000000000    6.9463108000000000    0.0000000000000000
    -1.8284011793727042    0.0000000000000000    6.3763926820801240
 Ag  As  S  
   6   2   8
Cartesian
  2.1140397997433431  1.0285626767398841  6.3015867560517638
  1.8491524987993786  4.7562756386934364  0.0971345866306871
  1.1019318474863924  2.1900351613065641  3.2853309276707487
 -0.8927503355703051  5.9177481232601155  3.1133904150117018
  4.8559426341130267  2.1900351613065641  3.2853309276707487
  5.9371231621727443  4.7562756386934364  0.0971345866306871
  3.0119067148899932  5.6833805693516277  3.1703527075224551
 -1.8232845997963592  1.2629302306483721  6.3585490485625167
  5.0028191982131069  4.6144251647728520  2.4925010376845385
  4.4165260439903786  2.3318856352271484  5.6806973787245996
  0.1676278835267553  2.3318856352271484  5.6806973787245996
  1.4097359086767296  4.6144251647728520  2.4925010376845385
 -0.5972885488247356  1.2828959423177040  2.0829927123121599
 -1.5971106973995195  6.1761080957455876  5.5697869145239141
  2.4095015864889127  5.6634148576822962  5.2711890533522219
  3.2380806172868328  0.7702027042544122  2.3815905734838516
