Ag As S 
 1.0000000000000000
     7.8419814500000005    0.0000000000000000    0.0000000000000000
     0.0000000000000000    6.9463108000000000    0.0000000000000000
    -2.6980296472863765    0.0000000000000000    6.0598738048890262
 Ag  As  S  
   6   2   8
Cartesian
  1.2546135521266937  1.0285626767398841  5.9887811833722084
  1.8359050396222696  4.7562756386934364  0.0923129058105628
  0.6538701543524474  2.1900351613065641  3.1222498082550758
 -1.3173623492301183  5.9177481232601155  2.9588442809276958
  4.4078809409790818  2.1900351613065641  3.1222498082550758
  5.9238757029956357  4.7562756386934364  0.0923129058105628
  2.5795260405414822  5.6833805693516277  3.0129790121876487
 -2.6904795081017063  1.2629302306483721  6.0429159146321618
  4.6628856391074374  4.6144251647728520  2.3687753405419043
  3.6417782509278722  2.3318856352271484  5.3987122429864165
 -0.6071199095357506  2.3318856352271484  5.3987122429864165
  1.0698023495710598  4.6144251647728520  2.3687753405419043
 -0.8813723327758267  1.2828959423177040  1.9795946709162520
 -2.3567322424614123  6.1761080957455876  5.2933072828140819
  1.6906035685809853  5.6634148576822962  5.0095315733607650
  2.9132733061817762  0.7702027042544122  2.2633703803695688
