K  Bi Au
 1.0000000000000000
    10.6904290000000000    0.0000000000000000    0.0000000000000000
     0.0000000000000000    7.9296513399999977    0.0000000000000000
    -2.7282722738013598    0.0000000000000000    6.1277998561811300
 K   Bi  Au 
   8   4   4
Cartesian
  8.1908619079396061  5.3748419755367527  1.5319499640452825
  6.8267257710389257  2.5548093644632450  4.5958498921358473
 -0.2287051817409652  2.5548093644632450  4.5958498921358473
  1.1354309551597146  5.3748419755367527  1.5319499640452825
  2.8456474079396057  1.4100163055367536  1.5319499640452825
  1.4815112710389258  6.5196350344632439  4.5958498921358473
  5.1165093182590349  6.5196350344632439  4.5958498921358473
  6.4806454551597152  1.4100163055367536  1.5319499640452825
 -0.6820680684503400  2.1800008738226104  1.5319499640452825
 -2.0462042053510197  5.7496504661773873  4.5958498921358473
  4.6631464315496602  6.1448265438226093  1.5319499640452825
  3.2990102946489803  1.7848247961773880  4.5958498921358473
 -1.3641361369006799  0.0000000000000000  3.0638999280905650
  0.0000000000000000  0.0000000000000000  0.0000000000000000
  3.9810783630993201  3.9648256699999989  3.0638999280905650
  5.3452145000000000  3.9648256699999989  0.0000000000000000
