Ag Cl
 1.0000000000000000
     5.5453259936122867    0.0000000000000000    0.0000000000000000
     0.0000000000000000    5.5453259936122867    0.0000000000000000
     0.0000000000000000    0.0000000000000000    5.6562325134845324
 Ag  Cl 
   4   4
Cartesian
  0.0000000000000000  0.0000000000000000  0.0000000000000000
  0.0000000000000000  2.7726629968061434  2.8281162567422662
  2.7726629968061434  0.0000000000000000  2.8281162567422662
  2.7726629968061434  2.7726629968061434  0.0000000000000000
  2.7726629968061434  0.0000000000000000  0.0000000000000000
  2.7726629968061434  2.7726629968061434  2.8281162567422662
  0.0000000000000000  0.0000000000000000  2.8281162567422662
  0.0000000000000000  2.7726629968061434  0.0000000000000000
