Ag As S 
 1.0000000000000000
     7.8419814500000005    0.0000000000000000    0.0000000000000000
     0.0000000000000000    6.9463108000000000    0.0000000000000000
    -0.6933746877309400    0.0000000000000000    6.5970194824049502
 Ag  As  S  
   6   2   8
Cartesian
  3.2357505010931136  1.0285626767398841  6.5196252289432195
  1.8664428908090087  4.7562756386934364  0.1004954983746313
  1.6867354853169045  2.1900351613065641  3.3990052395771060
 -0.3385528800414168  5.9177481232601155  3.2211154877407440
  5.4407462719435395  2.1900351613065641  3.3990052395771060
  5.9544135541823744  4.7562756386934364  0.1004954983746313
  3.5762437139269299  5.6833805693516277  3.2800487078531071
 -0.6914343549385406  1.2629302306483721  6.5785584490555822
  5.4464955602676532  4.6144251647728520  2.5787429860977995
  5.4277156518658058  2.3318856352271484  5.8772527273002746
  1.1788174914021834  2.3318856352271484  5.8772527273002746
  1.8534122707312755  4.6144251647728520  2.5787429860977995
 -0.2265065050815073  1.2828959423177040  2.1550654405976837
 -0.6056636495175889  6.1761080957455876  5.7625046981848822
  3.3477968760530228  5.6634148576822962  5.4535751818001588
  3.6620144193478814  0.7702027042544122  2.4639949569824067
