Ag As S 
 1.0000000000000000
     7.8419814500000005    0.0000000000000000    0.0000000000000000
     0.0000000000000000    6.9463108000000000    0.0000000000000000
    -0.9231849622780579    0.0000000000000000    6.5688023287537058
 Ag  As  S  
   6   2   8
Cartesian
  3.0086362917439002  1.0285626767398841  6.4917391104734650
  1.8629420828860033  4.7562756386934364  0.1000656532109997
  1.5683295401203403  2.1900351613065641  3.3844668175878523
 -0.4507619521170713  5.9177481232601155  3.2073379460966120
  5.3223403267469749  2.1900351613065641  3.3844668175878523
  5.9509127462593687  4.7562756386934364  0.1000656532109997
  3.4619816754275607  5.6833805693516277  3.2660190936280911
 -0.9206015307114683  1.2629302306483721  6.5504202580049435
  5.3566638362289138  4.6144251647728520  2.5677130373065520
  5.2229787905535074  2.3318856352271484  5.8521142016834036
  0.9740806300898849  2.3318856352271484  5.8521142016834036
  1.7635805466925358  4.6144251647728520  2.5677130373065520
 -0.3015792226764253  1.2828959423177040  2.1458476699320035
 -0.8064032092992367  6.1761080957455876  5.7378569794812497
  3.1578190211845460  5.6634148576822962  5.4302488343088564
  3.5761799968397923  0.7702027042544122  2.4534558151043964
