Ag As S 
 1.0000000000000000
     7.8419814500000005    0.0000000000000000    0.0000000000000000
     0.0000000000000000    6.9463108000000000    0.0000000000000000
    -0.4627196429330063    0.0000000000000000    6.6171991840098334
 Ag  As  S  
   6   2   8
Cartesian
  3.4636995701019910  1.0285626767398841  6.5395681883427841
  1.8699565675142866  4.7562756386934364  0.1008029052536382
  1.8055766844211494  2.1900351613065641  3.4094024972585544
 -0.2259313334315059  5.9177481232601155  3.2309685963378674
  5.5595874710477844  2.1900351613065641  3.4094024972585544
  5.9579272308876519  4.7562756386934364  0.1008029052536382
  3.6909257735550844  5.6833805693516277  3.2900820879803745
 -0.4614247729114189  1.2629302306483721  6.5986816799852903
  5.5366575009087482  4.6144251647728520  2.5866311337853927
  5.6332051149058682  2.3318856352271484  5.8952307257903085
  1.3843069544422455  2.3318856352271484  5.8952307257903085
  1.9435742113723709  4.6144251647728520  2.5866311337853927
 -0.1511578242008003  1.2828959423177040  2.1616575959863775
 -0.4041861818743382  6.1761080957455876  5.7801316925595767
  3.5384730793326966  5.6634148576822962  5.4702571879912938
  3.7481643645921654  0.7702027042544122  2.4715321005546604
