K  Bi Au
 1.0000000000000000
    10.6904290000000000    0.0000000000000000    0.0000000000000000
     0.0000000000000000    7.9296513399999977    0.0000000000000000
    -0.9335330835622349    0.0000000000000000    6.6424330376226983
 K   Bi  Au 
   8   4   4
Cartesian
  8.6395467054993880  5.3748419755367527  1.6606082594056746
  8.1727801637182704  2.5548093644632450  4.9818247782170237
  1.1173492109383785  2.5548093644632450  4.9818247782170237
  1.5841157527194958  5.3748419755367527  1.6606082594056746
  3.2943322054993867  1.4100163055367536  1.6606082594056746
  2.8275656637182691  6.5196350344632439  4.9818247782170237
  6.4625637109383787  6.5196350344632439  4.9818247782170237
  6.9293302527194962  1.4100163055367536  1.6606082594056746
 -0.2333832708905587  2.1800008738226104  1.6606082594056746
 -0.7001498126716762  5.7496504661773873  4.9818247782170237
  5.1118312291094412  6.1448265438226093  1.6606082594056746
  4.6450646873283237  1.7848247961773880  4.9818247782170237
 -0.4667665417811174  0.0000000000000000  3.3212165188113492
  0.0000000000000000  0.0000000000000000  0.0000000000000000
  4.8784479582188824  3.9648256699999989  3.3212165188113492
  5.3452145000000000  3.9648256699999989  0.0000000000000000
