K  Bi Au
 1.0000000000000000
    10.6904290000000000    0.0000000000000000    0.0000000000000000
     0.0000000000000000    7.9296513399999977    0.0000000000000000
    -0.2340957738723095    0.0000000000000000    6.7036258730676375
 K   Bi  Au 
   8   4   4
Cartesian
  8.8144060329218679  5.3748419755367527  1.6759064682669094
  8.6973581459857137  2.5548093644632450  5.0277194048007283
  1.6419271932058224  2.5548093644632450  5.0277194048007283
  1.7589750801419772  5.3748419755367527  1.6759064682669094
  3.4691915329218679  1.4100163055367536  1.6759064682669094
  3.3521436459857132  6.5196350344632439  5.0277194048007283
  6.9871416932058228  6.5196350344632439  5.0277194048007283
  7.1041895801419779  1.4100163055367536  1.6759064682669094
 -0.0585239434680774  2.1800008738226104  1.6759064682669094
 -0.1755718304042321  5.7496504661773873  5.0277194048007283
  5.2866905565319229  6.1448265438226093  1.6759064682669094
  5.1696426695957678  1.7848247961773880  5.0277194048007283
 -0.1170478869361547  0.0000000000000000  3.3518129365338187
  0.0000000000000000  0.0000000000000000  0.0000000000000000
  5.2281666130638449  3.9648256699999989  3.3518129365338187
  5.3452145000000000  3.9648256699999989  0.0000000000000000
