Ag As S 
 1.0000000000000000
     7.8419814500000005    0.0000000000000000    0.0000000000000000
     0.0000000000000000    6.9463108000000000    0.0000000000000000
    -0.2315008455266528    0.0000000000000000    6.6293168477103954
 Ag  As  S  
   6   2   8
Cartesian
  3.6922057779428124  1.0285626767398841  6.5515436912481100
  1.8734788321280125  4.7562756386934364  0.1009874993200909
  1.9247083477380520  2.1900351613065641  3.4156459231752883
 -0.1130345242938613  5.9177481232601155  3.2368852673929127
  5.6787191343646866  2.1900351613065641  3.4156459231752883
  5.9614494955013777  4.7562756386934364  0.1009874993200909
  3.8058881318877873  5.6833805693516277  3.2961070098817324
 -0.2308530158755394  1.2629302306483721  6.6107654337369297
  5.6270398097159129  4.6144251647728520  2.5913678698764500
  5.8391968224162092  2.3318856352271484  5.9060262937316468
  1.5902986619525865  2.3318856352271484  5.9060262937316468
  2.0339565201795349  4.6144251647728520  2.5913678698764500
 -0.0756249807953815  1.2828959423177040  2.1656161045721896
 -0.2022162756285797  6.1761080957455876  5.7907164868279208
  3.7296153214412922  5.6634148576822962  5.4802745284273868
  3.8345248721347471  0.7702027042544122  2.4760580629727231
