K  Bi Au
 1.0000000000000000
    10.6904290000000000    0.0000000000000000    0.0000000000000000
     0.0000000000000000    7.9296513399999977    0.0000000000000000
    -2.5127531531732319    0.0000000000000000    6.2192822952994105
 K   Bi  Au 
   8   4   4
Cartesian
  8.2447416880966387  5.3748419755367527  1.5548205738248526
  6.9883651115100225  2.5548093644632450  4.6644617214745576
 -0.0670658412698692  2.5548093644632450  4.6644617214745576
  1.1893107353167467  5.3748419755367527  1.5548205738248526
  2.8995271880966373  1.4100163055367536  1.5548205738248526
  1.6431506115100216  6.5196350344632439  4.6644617214745576
  5.2781486587301316  6.5196350344632439  4.6644617214745576
  6.5345252353167469  1.4100163055367536  1.5548205738248526
 -0.6281882882933080  2.1800008738226104  1.5548205738248526
 -1.8845648648799238  5.7496504661773873  4.6644617214745576
  4.7170262117066919  6.1448265438226093  1.5548205738248526
  3.4606496351200762  1.7848247961773880  4.6644617214745576
 -1.2563765765866159  0.0000000000000000  3.1096411476497052
  0.0000000000000000  0.0000000000000000  0.0000000000000000
  4.0888379234133838  3.9648256699999989  3.1096411476497052
  5.3452145000000000  3.9648256699999989  0.0000000000000000
