K  Bi Au
 1.0000000000000000
    10.6904290000000000    0.0000000000000000    0.0000000000000000
     0.0000000000000000    7.9296513399999977    0.0000000000000000
    -0.4679063381038486    0.0000000000000000    6.6913723806233483
 K   Bi  Au 
   8   4   4
Cartesian
  8.7559533918639829  5.3748419755367527  1.6728430951558371
  8.5220002228120588  2.5548093644632450  5.0185292854675110
  1.4665692700321682  2.5548093644632450  5.0185292854675110
  1.7005224390840925  5.3748419755367527  1.6728430951558371
  3.4107388918639834  1.4100163055367536  1.6728430951558371
  3.1767857228120588  6.5196350344632439  5.0185292854675110
  6.8117837700321688  6.5196350344632439  5.0185292854675110
  7.0457369390840929  1.4100163055367536  1.6728430951558371
 -0.1169765845259621  2.1800008738226104  1.6728430951558371
 -0.3509297535778864  5.7496504661773873  5.0185292854675110
  5.2282379154740379  6.1448265438226093  1.6728430951558371
  4.9942847464221138  1.7848247961773880  5.0185292854675110
 -0.2339531690519243  0.0000000000000000  3.3456861903116741
  0.0000000000000000  0.0000000000000000  0.0000000000000000
  5.1112613309480759  3.9648256699999989  3.3456861903116741
  5.3452145000000000  3.9648256699999989  0.0000000000000000
