Ag As S 
 1.0000000000000000
     7.8419814500000005    0.0000000000000000    0.0000000000000000
     0.0000000000000000    6.9463108000000000    0.0000000000000000
     0.0000000000000000    0.0000000000000000    6.6333577100000003
 Ag  As  S  
   6   2   8
Cartesian
  3.9209907250000002  1.0285626767398841  6.5555371473535917
  1.8770053933133173  4.7562756386934364  0.1010490556745537
  2.0439853316866832  2.1900351613065641  3.4177279106745533
  0.0000000000000000  5.9177481232601155  3.2388582923535920
  5.7979961183133177  2.1900351613065641  3.4177279106745533
  5.9649760566866830  4.7562756386934364  0.1010490556745537
  3.9209907250000002  5.6833805693516277  3.2981161331179121
  0.0000000000000000  1.2629302306483721  6.6147949881179118
  5.7175323697681888  4.6144251647728520  2.5929474233876828
  6.0454398052318119  2.3318856352271484  5.9096262783876821
  1.7965416447681890  2.3318856352271484  5.9096262783876821
  2.1244490802318112  4.6144251647728520  2.5929474233876828
  0.0000000000000000  1.2828959423177040  2.1669361435221677
  0.0000000000000000  6.1761080957455876  5.7942461850485598
  3.9209907250000002  5.6634148576822962  5.4836149985221674
  3.9209907250000002  0.7702027042544122  2.4775673300485597
