K  Bi Au
 1.0000000000000000
    10.6904290000000000    0.0000000000000000    0.0000000000000000
     0.0000000000000000    7.9296513399999977    0.0000000000000000
    -1.6227424094342957    0.0000000000000000    6.5084643157990882
 K   Bi  Au 
   8   4   4
Cartesian
  8.4672443740313721  5.3748419755367527  1.6271160789497718
  7.6558731693142246  2.5548093644632450  4.8813482368493153
  0.6004422165343328  2.5548093644632450  4.8813482368493153
  1.4118134212514806  5.3748419755367527  1.6271160789497718
  3.1220298740313717  1.4100163055367536  1.6271160789497718
  2.3106586693142237  6.5196350344632439  4.8813482368493153
  5.9456567165343337  6.5196350344632439  4.8813482368493153
  6.7570279212514812  1.4100163055367536  1.6271160789497718
 -0.4056856023585739  2.1800008738226104  1.6271160789497718
 -1.2170568070757217  5.7496504661773873  4.8813482368493153
  4.9395288976414262  6.1448265438226093  1.6271160789497718
  4.1281576929242787  1.7848247961773880  4.8813482368493153
 -0.8113712047171479  0.0000000000000000  3.2542321578995437
  0.0000000000000000  0.0000000000000000  0.0000000000000000
  4.5338432952828525  3.9648256699999989  3.2542321578995437
  5.3452145000000000  3.9648256699999989  0.0000000000000000
