Ag As S 
 1.0000000000000000
     7.8419814500000005    0.0000000000000000    0.0000000000000000
     0.0000000000000000    6.9463108000000000    0.0000000000000000
    -2.2687419547046299    0.0000000000000000    6.2333172911203123
 Ag  As  S  
   6   2   8
Cartesian
  1.6788649702853791  1.0285626767398841  6.1601898826560753
  1.8424445808085830  4.7562756386934364  0.0949550519547625
  0.8750535418296340  2.1900351613065641  3.2116136975149185
 -1.1077547773623062  5.9177481232601155  3.0435312370959191
  4.6290643284562689  2.1900351613065641  3.2116136975149185
  5.9304152441819484  4.7562756386934364  0.0949550519547625
  2.7929685724463114  5.6833805693516277  3.0992153927858572
 -2.2623931299060036  1.2629302306483721  6.2158740383460129
  4.8306921203852102  4.6144251647728520  2.4365735598432408
  4.0242285784965182  2.3318856352271484  5.5532322054033960
 -0.2246695819671045  2.3318856352271484  5.5532322054033960
  1.2376088308488324  4.6144251647728520  2.4365735598432408
 -0.7411358103850237  1.2828959423177040  2.0362539037820557
 -1.9817489106745179  6.1761080957455876  5.4448103831070336
  2.0454839372626616  5.6634148576822962  5.1529125493422114
  3.0736127916777973  0.7702027042544122  2.3281517375468774
